51 22 57 24 3 16 30 55 20 71 40 32 15 28 88 31 78 43 39 12 50 61 90 9 1 98 91 36 97 68 34 77 59 70 82 64 49 11 67 65 76 52 46 81 60 80 53 48 92 8 2 96 6 35 84 69 83 7 85 23 56 21 29 27 94 99 17 37 95 5 14 33 26 86 72 62 73 58 45 74 89 0 10 63 19 25 44 47 66 13 93 42 41 87 4 54 18 79 38 75 

